Route #1: 41 20 23 7 30 22 17 34 44 13 26 27 5 12 9 42
Route #2: 1 39 21 32 4 36
Route #3: 45 38 16 10 33 8 19 28 35 25 15
Route #4: 18 29 24 37 31 3 2 11 40 14
Route #5: 6 43
cost 1472.2486174043943
